packages/tsp15-8_20210518_145431.tsp
NAME: tsp15-8_20210518_145431
TYPE: TSP
COMMENT: Generated by GitHub user:GunterSchmidt
DIMENSION: 15
EDGE_WEIGHT_TYPE: EUC_2D
NODE_COORD_SECTION
   1  46.89  56.15
   2  20.99  72.4
   3  39.98  7.56
   4  20.86  71.88
   5  24.59  56.28
   6  77.83  67.21
   7  13.17  35.96
   8  83.69  84.03
   9  13.21  65.45
  10  0.81  85.3
  11  57.78  42.64
  12  111.39  62.0
  13  47.73  9.49
  14  125.55  47.61
  15  100.4  30.68
EOF
